(set-logic SLHV)
(declare-hvar emp IntHeap)
(declare-locvar nil IntLoc)
(declare-datatype pt_record_0 ((Pt_R_0 (loc IntLoc))))
(declare-datatype pt_record_1 ((Pt_R_1 (data Int))))
(declare-const invalidDeref_3 Bool)
(declare-const loc_3 Int)
(declare-hvar AH_3 IntHeap)
(declare-hvar AH_2 IntHeap)
(declare-const $i7_free_data0_3 Int)
(declare-const $i7_free_data0_2 Int)
(declare-const $i6_free_data0_3 Int)
(declare-const $i6_free_data0_2 Int)
(declare-const $i5_free_data0_3 Int)
(declare-const $i5_free_data0_2 Int)
(declare-locvar $p9_free_data0_3 IntLoc)
(declare-locvar $p9_free_data0_2 IntLoc)
(declare-locvar $p9_alloc_data0_3 IntLoc)
(declare-locvar $p9_alloc_data0_2 IntLoc)
(declare-locvar $p8_free_data0_3 IntLoc)
(declare-locvar $p8_free_data0_2 IntLoc)
(declare-locvar $p8_alloc_data0_3 IntLoc)
(declare-locvar $p8_alloc_data0_2 IntLoc)
(declare-locvar $p7_alloc_data0_3 IntLoc)
(declare-locvar $p7_alloc_data0_2 IntLoc)
(declare-locvar $p6_alloc_data0_3 IntLoc)
(declare-locvar $p6_alloc_data0_2 IntLoc)
(declare-locvar $p5_alloc_data0_3 IntLoc)
(declare-locvar $p5_alloc_data0_2 IntLoc)
(declare-locvar $p4_free_data0_3 IntLoc)
(declare-locvar $p4_free_data0_2 IntLoc)
(declare-locvar $p4_alloc_data0_3 IntLoc)
(declare-locvar $p4_alloc_data0_2 IntLoc)
(declare-locvar $p3_free_data0_3 IntLoc)
(declare-locvar $p3_free_data0_2 IntLoc)
(declare-locvar $p3_alloc_data0_3 IntLoc)
(declare-locvar $p3_alloc_data0_2 IntLoc)
(declare-locvar $p2_free_data0_3 IntLoc)
(declare-locvar $p2_free_data0_2 IntLoc)
(declare-locvar $p2_alloc_data0_3 IntLoc)
(declare-locvar $p2_alloc_data0_2 IntLoc)
(declare-locvar $p1_free_data0_3 IntLoc)
(declare-locvar $p1_free_data0_2 IntLoc)
(declare-locvar $p1_alloc_data0_3 IntLoc)
(declare-locvar $p1_alloc_data0_2 IntLoc)
(declare-locvar $p10_alloc_data0_3 IntLoc)
(declare-locvar $p10_alloc_data0_2 IntLoc)
(declare-locvar $p0_main0_3 IntLoc)
(declare-locvar $p0_main0_2 IntLoc)
(declare-locvar $p0_free_data0_3 IntLoc)
(declare-locvar $p0_free_data0_2 IntLoc)
(declare-locvar $p0_alloc_data0_3 IntLoc)
(declare-locvar $p0_alloc_data0_2 IntLoc)
(declare-const invalidDeref12_3 Bool)
(declare-hvar H11_3 IntHeap)
(declare-hvar H_3 IntHeap)
(declare-const $r_main01_3 Int)
(declare-const $r_main0_3 Int)
(declare-locvar $p11_free_data01_3 IntLoc)
(declare-locvar $p11_free_data0_3 IntLoc)
(declare-locvar $p10_free_data01_3 IntLoc)
(declare-locvar $p10_free_data0_3 IntLoc)
(declare-const invalidDeref11_3 Bool)
(declare-hvar h25_3 IntHeap)
(declare-locvar l33_3 IntLoc)
(declare-hvar H10_3 IntHeap)
(declare-locvar l34_3 IntLoc)
(declare-hvar h26 IntHeap)
(declare-const invalidDeref_2 Bool)
(declare-hvar h23_3 IntHeap)
(declare-locvar l31_3 IntLoc)
(declare-hvar H_2 IntHeap)
(declare-locvar l32_3 IntLoc)
(declare-hvar h24 IntHeap)
(declare-const loc_2 Int)
(declare-const invalidDeref_1 Bool)
(declare-hvar H_1 IntHeap)
(declare-hvar AH_1 IntHeap)
(declare-const $r_main0_2 Int)
(declare-const $r_main0_1 Int)
(declare-const $i7_free_data0_1 Int)
(declare-const $i6_free_data0_1 Int)
(declare-const $i5_free_data0_1 Int)
(declare-locvar $p9_free_data0_1 IntLoc)
(declare-locvar $p9_alloc_data0_1 IntLoc)
(declare-locvar $p8_free_data0_1 IntLoc)
(declare-locvar $p8_alloc_data0_1 IntLoc)
(declare-locvar $p7_alloc_data0_1 IntLoc)
(declare-locvar $p6_alloc_data0_1 IntLoc)
(declare-locvar $p5_alloc_data0_1 IntLoc)
(declare-locvar $p4_free_data0_1 IntLoc)
(declare-locvar $p4_alloc_data0_1 IntLoc)
(declare-locvar $p3_free_data0_1 IntLoc)
(declare-locvar $p3_alloc_data0_1 IntLoc)
(declare-locvar $p2_free_data0_1 IntLoc)
(declare-locvar $p2_alloc_data0_1 IntLoc)
(declare-locvar $p1_free_data0_1 IntLoc)
(declare-locvar $p1_alloc_data0_1 IntLoc)
(declare-locvar $p11_free_data0_2 IntLoc)
(declare-locvar $p11_free_data0_1 IntLoc)
(declare-locvar $p10_free_data0_2 IntLoc)
(declare-locvar $p10_free_data0_1 IntLoc)
(declare-locvar $p10_alloc_data0_1 IntLoc)
(declare-locvar $p0_main0_1 IntLoc)
(declare-locvar $p0_free_data0_1 IntLoc)
(declare-locvar $p0_alloc_data0_1 IntLoc)
(declare-const loc_1 Int)
(declare-hvar H9_2 IntHeap)
(declare-hvar AH5_2 IntHeap)
(declare-locvar $p9_free_data01_2 IntLoc)
(declare-locvar $p8_free_data01_2 IntLoc)
(declare-hvar h22_2 IntHeap)
(declare-locvar l30_2 IntLoc)
(declare-const d17_2 Int)
(declare-hvar H8_2 IntHeap)
(declare-const d15_2 Int)
(declare-locvar l29_2 IntLoc)
(declare-const d16_2 Int)
(declare-locvar l25_2 IntLoc)
(declare-locvar l28_2 IntLoc)
(declare-locvar l27_2 IntLoc)
(declare-locvar l26_2 IntLoc)
(declare-hvar ah3 IntHeap)
(declare-hvar AH4_2 IntHeap)
(declare-hvar h21_2 IntHeap)
(declare-locvar l24_2 IntLoc)
(declare-const d13_2 Int)
(declare-const d11_2 Int)
(declare-locvar l23_2 IntLoc)
(declare-const d12_2 Int)
(declare-locvar l19_2 IntLoc)
(declare-locvar l22_2 IntLoc)
(declare-locvar l21_2 IntLoc)
(declare-locvar l20_2 IntLoc)
(declare-hvar ah1 IntHeap)
(declare-const $r_main0_0 Int)
(declare-locvar $p9_free_data0_0 IntLoc)
(declare-locvar $p8_free_data0_0 IntLoc)
(declare-locvar $p11_free_data0_0 IntLoc)
(declare-locvar $p10_free_data0_0 IntLoc)
(declare-const invalidDeref10_1 Bool)
(declare-hvar H7_1 IntHeap)
(declare-hvar AH3_1 IntHeap)
(declare-locvar $p9_alloc_data01_1 IntLoc)
(declare-locvar $p8_alloc_data01_1 IntLoc)
(declare-locvar $p7_alloc_data01_1 IntLoc)
(declare-locvar $p6_alloc_data01_1 IntLoc)
(declare-locvar $p5_alloc_data01_1 IntLoc)
(declare-locvar $p4_free_data01_1 IntLoc)
(declare-locvar $p4_alloc_data01_1 IntLoc)
(declare-locvar $p3_free_data01_1 IntLoc)
(declare-locvar $p3_alloc_data01_1 IntLoc)
(declare-locvar $p2_free_data01_1 IntLoc)
(declare-locvar $p2_alloc_data01_1 IntLoc)
(declare-locvar $p1_free_data01_1 IntLoc)
(declare-locvar $p1_alloc_data01_1 IntLoc)
(declare-locvar $p10_alloc_data01_1 IntLoc)
(declare-locvar $p0_main01_1 IntLoc)
(declare-locvar $p0_free_data01_1 IntLoc)
(declare-locvar $p0_alloc_data01_1 IntLoc)
(declare-const $i7_free_data01_1 Int)
(declare-const $i6_free_data01_1 Int)
(declare-const $i5_free_data01_1 Int)
(declare-const invalidDeref9_1 Bool)
(declare-const d9_1 Int)
(declare-hvar h19_1 IntHeap)
(declare-const d10_1 Int)
(declare-hvar h20_1 IntHeap)
(declare-const invalidDeref8_1 Bool)
(declare-const d7_1 Int)
(declare-hvar h17_1 IntHeap)
(declare-const d8_1 Int)
(declare-hvar h18_1 IntHeap)
(declare-const invalidDeref7_1 Bool)
(declare-locvar l17_1 IntLoc)
(declare-hvar h15_1 IntHeap)
(declare-locvar l18_1 IntLoc)
(declare-hvar h16_1 IntHeap)
(declare-const invalidDeref6_1 Bool)
(declare-locvar l15_1 IntLoc)
(declare-hvar h13_1 IntHeap)
(declare-locvar l16_1 IntLoc)
(declare-hvar h14_1 IntHeap)
(declare-const invalidDeref5_1 Bool)
(declare-hvar h11_1 IntHeap)
(declare-const d5_1 Int)
(declare-hvar H6_1 IntHeap)
(declare-const d6_1 Int)
(declare-hvar h12 IntHeap)
(declare-const invalidDeref4_1 Bool)
(declare-locvar l13_1 IntLoc)
(declare-hvar h9_1 IntHeap)
(declare-locvar l14_1 IntLoc)
(declare-hvar h10_1 IntHeap)
(declare-const invalidDeref3_1 Bool)
(declare-hvar h7_1 IntHeap)
(declare-const d3_1 Int)
(declare-hvar H5_1 IntHeap)
(declare-const d4_1 Int)
(declare-hvar h8 IntHeap)
(declare-const invalidDeref2_1 Bool)
(declare-locvar l11_1 IntLoc)
(declare-hvar h5_1 IntHeap)
(declare-locvar l12_1 IntLoc)
(declare-hvar h6_1 IntHeap)
(declare-const invalidDeref1_1 Bool)
(declare-hvar h3_1 IntHeap)
(declare-locvar l9_1 IntLoc)
(declare-hvar H4_1 IntHeap)
(declare-locvar l10_1 IntLoc)
(declare-hvar h4 IntHeap)
(declare-locvar l8_1 IntLoc)
(declare-hvar AH2_1 IntHeap)
(declare-const d2_1 Int)
(declare-hvar H3_1 IntHeap)
(declare-const invalidDeref_0 Bool)
(declare-hvar h1_1 IntHeap)
(declare-locvar l6_1 IntLoc)
(declare-hvar H2_1 IntHeap)
(declare-locvar l7_1 IntLoc)
(declare-hvar h2 IntHeap)
(declare-locvar l5_1 IntLoc)
(declare-hvar AH1_1 IntHeap)
(declare-const d1_1 Int)
(declare-hvar H1_1 IntHeap)
(declare-locvar l1_1 IntLoc)
(declare-hvar AH_0 IntHeap)
(declare-locvar l3_1 IntLoc)
(declare-locvar l4_1 IntLoc)
(declare-locvar l2_1 IntLoc)
(declare-hvar H_0 IntHeap)
(declare-const loc_0 Int)
(assert
 (let (($x1551 (= loc_3 4)))
 (let (($x1547 (= AH_2 AH_3)))
 (let (($x1548 (and true $x1547)))
 (let (($x1543 (= $i7_free_data0_2 $i7_free_data0_3)))
 (let (($x1540 (= $i6_free_data0_2 $i6_free_data0_3)))
 (let (($x1544 (and (and (and true (= $i5_free_data0_2 $i5_free_data0_3)) $x1540) $x1543)))
 (let (($x1533 (= $p9_free_data0_2 $p9_free_data0_3)))
 (let (($x1530 (= $p9_alloc_data0_2 $p9_alloc_data0_3)))
 (let (($x1527 (= $p8_free_data0_2 $p8_free_data0_3)))
 (let (($x1524 (= $p8_alloc_data0_2 $p8_alloc_data0_3)))
 (let (($x1521 (= $p7_alloc_data0_2 $p7_alloc_data0_3)))
 (let (($x1518 (= $p6_alloc_data0_2 $p6_alloc_data0_3)))
 (let (($x1515 (= $p5_alloc_data0_2 $p5_alloc_data0_3)))
 (let (($x1512 (= $p4_free_data0_2 $p4_free_data0_3)))
 (let (($x1509 (= $p4_alloc_data0_2 $p4_alloc_data0_3)))
 (let (($x1506 (= $p3_free_data0_2 $p3_free_data0_3)))
 (let (($x1503 (= $p3_alloc_data0_2 $p3_alloc_data0_3)))
 (let (($x1500 (= $p2_free_data0_2 $p2_free_data0_3)))
 (let (($x1497 (= $p2_alloc_data0_2 $p2_alloc_data0_3)))
 (let (($x1494 (= $p1_free_data0_2 $p1_free_data0_3)))
 (let (($x1491 (= $p1_alloc_data0_2 $p1_alloc_data0_3)))
 (let (($x1488 (= $p10_alloc_data0_2 $p10_alloc_data0_3)))
 (let (($x1485 (= $p0_main0_2 $p0_main0_3)))
 (let (($x1482 (= $p0_free_data0_2 $p0_free_data0_3)))
 (let (($x1486 (and (and (and true (= $p0_alloc_data0_2 $p0_alloc_data0_3)) $x1482) $x1485)))
 (let (($x1504 (and (and (and (and (and (and $x1486 $x1488) $x1491) $x1494) $x1497) $x1500) $x1503)))
 (let (($x1522 (and (and (and (and (and (and $x1504 $x1506) $x1509) $x1512) $x1515) $x1518) $x1521)))
 (let (($x1534 (and (and (and (and $x1522 $x1524) $x1527) $x1530) $x1533)))
 (let (($x1475 (= invalidDeref_3 invalidDeref12_3)))
 (let (($x1472 (= H_3 H11_3)))
 (let (($x1469 (= $r_main0_3 $r_main01_3)))
 (let (($x1466 (= $p11_free_data0_3 $p11_free_data01_3)))
 (let (($x1464 (= $p10_free_data0_3 $p10_free_data01_3)))
 (let (($x1473 (and (and (and $x1464 $x1466) $x1469) $x1472)))
 (let (($x1414 (= invalidDeref12_3 invalidDeref11_3)))
 (let (($x1415 (and invalidDeref11_3 $x1414)))
 (let (($x1418 (= H11_3 (uplus h25_3 (pt $p11_free_data01_3 (Pt_R_0 nil))))))
 (let (($x1422 (= H10_3 (uplus h25_3 (pt $p11_free_data01_3 (Pt_R_0 l33_3))))))
 (let (($x1423 (and $x1422 $x1418)))
 (let (($x1425 (= $p11_free_data01_3 nil)))
 (let (($x1429 (= h26 (uplus H10_3 (pt $p11_free_data01_3 (Pt_R_0 l34_3))))))
 (let (($x1433 (or (or (and (or $x1429 $x1425) invalidDeref12_3) (and $x1423 $x1414)) $x1415)))
 (let (($x1435 (= $p11_free_data01_3 (locadd $p0_free_data0_2 1))))
 (let (($x1437 (= invalidDeref11_3 invalidDeref_2)))
 (let (($x1438 (and invalidDeref_2 $x1437)))
 (let (($x1441 (= H10_3 (uplus h23_3 (pt $p10_free_data01_3 (Pt_R_0 nil))))))
 (let (($x1445 (= H_2 (uplus h23_3 (pt $p10_free_data01_3 (Pt_R_0 l31_3))))))
 (let (($x1446 (and $x1445 $x1441)))
 (let (($x1448 (= $p10_free_data01_3 nil)))
 (let (($x1452 (= h24 (uplus H_2 (pt $p10_free_data01_3 (Pt_R_0 l32_3))))))
 (let (($x1456 (or (or (and (or $x1452 $x1448) invalidDeref11_3) (and $x1446 $x1437)) $x1438)))
 (let (($x1459 (and (or (= $p10_free_data01_3 $p0_free_data0_2) invalidDeref_2) $x1456)))
 (let (($x1462 (and (and (and $x1459 (or $x1435 invalidDeref11_3)) $x1433) (or (= $r_main01_3 0) invalidDeref12_3))))
 (let (($x1552 (and (and (and (and (and $x1462 (and $x1473 $x1475)) $x1534) $x1544) $x1548) $x1551)))
 (let (($x1376 (= loc_2 3)))
 (let (($x1373 (= invalidDeref_1 invalidDeref_2)))
 (let (($x1369 (= $r_main0_1 $r_main0_2)))
 (let (($x1366 (= $i7_free_data0_1 $i7_free_data0_2)))
 (let (($x1363 (= $i6_free_data0_1 $i6_free_data0_2)))
 (let (($x1367 (and (and (and true (= $i5_free_data0_1 $i5_free_data0_2)) $x1363) $x1366)))
 (let (($x1370 (and $x1367 $x1369)))
 (let (($x1385 (= $p9_free_data0_1 $p9_free_data0_2)))
 (let (($x1356 (= $p9_alloc_data0_1 $p9_alloc_data0_2)))
 (let (($x1382 (= $p8_free_data0_1 $p8_free_data0_2)))
 (let (($x1353 (= $p8_alloc_data0_1 $p8_alloc_data0_2)))
 (let (($x1350 (= $p7_alloc_data0_1 $p7_alloc_data0_2)))
 (let (($x1347 (= $p6_alloc_data0_1 $p6_alloc_data0_2)))
 (let (($x1344 (= $p5_alloc_data0_1 $p5_alloc_data0_2)))
 (let (($x1341 (= $p4_free_data0_1 $p4_free_data0_2)))
 (let (($x1338 (= $p4_alloc_data0_1 $p4_alloc_data0_2)))
 (let (($x1335 (= $p3_free_data0_1 $p3_free_data0_2)))
 (let (($x1332 (= $p3_alloc_data0_1 $p3_alloc_data0_2)))
 (let (($x1329 (= $p2_free_data0_1 $p2_free_data0_2)))
 (let (($x1326 (= $p2_alloc_data0_1 $p2_alloc_data0_2)))
 (let (($x1323 (= $p1_free_data0_1 $p1_free_data0_2)))
 (let (($x1320 (= $p1_alloc_data0_1 $p1_alloc_data0_2)))
 (let (($x1317 (= $p11_free_data0_1 $p11_free_data0_2)))
 (let (($x1314 (= $p10_free_data0_1 $p10_free_data0_2)))
 (let (($x1311 (= $p10_alloc_data0_1 $p10_alloc_data0_2)))
 (let (($x1308 (= $p0_main0_1 $p0_main0_2)))
 (let (($x1305 (= $p0_free_data0_1 $p0_free_data0_2)))
 (let (($x1309 (and (and (and true (= $p0_alloc_data0_1 $p0_alloc_data0_2)) $x1305) $x1308)))
 (let (($x1327 (and (and (and (and (and (and $x1309 $x1311) $x1314) $x1317) $x1320) $x1323) $x1326)))
 (let (($x1345 (and (and (and (and (and (and $x1327 $x1329) $x1332) $x1335) $x1338) $x1341) $x1344)))
 (let (($x1354 (and (and (and $x1345 $x1347) $x1350) $x1353)))
 (let (($x1388 (and (and (and true true) (and (and (and $x1354 $x1382) $x1356) $x1385)) $x1370)))
 (let (($x1393 (and $x1388 (and (and true (= AH_1 AH_2)) (= H_1 H_2)))))
 (let (($x1167 (= loc_1 2)))
 (let (($x1380 (and $x1167 (not (= $i7_free_data0_1 1)))))
 (let (($x1357 (and $x1354 $x1356)))
 (let (($x1297 (= H_2 H9_2)))
 (let (($x1294 (= AH_2 AH5_2)))
 (let (($x1291 (= $p9_free_data0_2 $p9_free_data01_2)))
 (let (($x1289 (= $p8_free_data0_2 $p8_free_data01_2)))
 (let (($x1298 (and (and (and $x1289 $x1291) $x1294) $x1297)))
 (let (($x1299 (and $x1298 true)))
 (let (($x1199 (= H9_2 h22_2)))
 (let (($x1200 (= $p9_free_data01_2 l30_2)))
 (let (($x1204 (= H8_2 (uplus h22_2 (pt l30_2 (Pt_R_1 d17_2))))))
 (let (($x1207 (= d15_2 1)))
 (let (($x1209 (= $p9_free_data01_2 l29_2)))
 (let (($x1213 (= H8_2 (uplus h22_2 (pt l29_2 (Pt_R_1 d16_2))))))
 (let (($x1216 (= d15_2 3)))
 (let (($x1218 (= $p9_free_data01_2 l25_2)))
 (let ((?x1224 (uplus h22_2 (uplus (pt l25_2 (Pt_R_0 l26_2)) (pt l27_2 (Pt_R_0 l28_2))))))
 (let (($x1225 (= H8_2 ?x1224)))
 (let (($x1228 (= d15_2 2)))
 (let (($x1230 (and (=> $x1228 (and (and $x1225 $x1218) $x1199)) (=> $x1216 (and (and $x1213 $x1209) $x1199)))))
 (let (($x1232 (= AH5_2 ah3)))
 (let (($x1236 (= AH4_2 (uplus ah3 (pt $p9_free_data01_2 (Pt_R_1 d15_2))))))
 (let (($x1238 (and (and $x1236 $x1232) (and $x1230 (=> $x1207 (and (and $x1204 $x1200) $x1199))))))
 (let (($x1242 (= H8_2 h21_2)))
 (let (($x1243 (= $p8_free_data01_2 l24_2)))
 (let (($x1247 (= H_1 (uplus h21_2 (pt l24_2 (Pt_R_1 d13_2))))))
 (let (($x1250 (= d11_2 1)))
 (let (($x1252 (= $p8_free_data01_2 l23_2)))
 (let (($x1256 (= H_1 (uplus h21_2 (pt l23_2 (Pt_R_1 d12_2))))))
 (let (($x1259 (= d11_2 3)))
 (let (($x1261 (= $p8_free_data01_2 l19_2)))
 (let ((?x1267 (uplus h21_2 (uplus (pt l19_2 (Pt_R_0 l20_2)) (pt l21_2 (Pt_R_0 l22_2))))))
 (let (($x1268 (= H_1 ?x1267)))
 (let (($x1271 (= d11_2 2)))
 (let (($x1273 (and (=> $x1271 (and (and $x1268 $x1261) $x1242)) (=> $x1259 (and (and $x1256 $x1252) $x1242)))))
 (let (($x1275 (= AH4_2 ah1)))
 (let (($x1279 (= AH_1 (uplus ah1 (pt $p8_free_data01_2 (Pt_R_1 d11_2))))))
 (let (($x1281 (and (and $x1279 $x1275) (and $x1273 (=> $x1250 (and (and $x1247 $x1243) $x1242))))))
 (let (($x1285 (and (or (= $p8_free_data01_2 $p2_free_data0_1) invalidDeref_1) (or $x1281 invalidDeref_1))))
 (let (($x1286 (and $x1285 (or (= $p9_free_data01_2 $p4_free_data0_1) invalidDeref_1))))
 (let (($x1371 (and (and (and (and $x1286 (or $x1238 invalidDeref_1)) $x1299) $x1357) $x1370)))
 (let (($x1197 (= $i7_free_data0_1 1)))
 (let (($x1198 (and $x1167 $x1197)))
 (let (($x1397 (and (=> $x1198 (and (and $x1371 $x1373) $x1376)) (=> $x1380 (and (and $x1393 $x1373) $x1376)))))
 (let (($x1163 (= $r_main0_0 $r_main0_1)))
 (let (($x1164 (and true $x1163)))
 (let (($x1158 (= $p9_free_data0_0 $p9_free_data0_1)))
 (let (($x1154 (= $p8_free_data0_0 $p8_free_data0_1)))
 (let (($x1150 (= $p11_free_data0_0 $p11_free_data0_1)))
 (let (($x1155 (and (and (and true (= $p10_free_data0_0 $p10_free_data0_1)) $x1150) $x1154)))
 (let (($x1159 (and $x1155 $x1158)))
 (let (($x1141 (= invalidDeref_1 invalidDeref10_1)))
 (let (($x1138 (= H_1 H7_1)))
 (let (($x1135 (= AH_1 AH3_1)))
 (let (($x1132 (= $p9_alloc_data0_1 $p9_alloc_data01_1)))
 (let (($x1129 (= $p8_alloc_data0_1 $p8_alloc_data01_1)))
 (let (($x1126 (= $p7_alloc_data0_1 $p7_alloc_data01_1)))
 (let (($x1123 (= $p6_alloc_data0_1 $p6_alloc_data01_1)))
 (let (($x1120 (= $p5_alloc_data0_1 $p5_alloc_data01_1)))
 (let (($x1117 (= $p4_free_data0_1 $p4_free_data01_1)))
 (let (($x1114 (= $p4_alloc_data0_1 $p4_alloc_data01_1)))
 (let (($x1111 (= $p3_free_data0_1 $p3_free_data01_1)))
 (let (($x1108 (= $p3_alloc_data0_1 $p3_alloc_data01_1)))
 (let (($x1105 (= $p2_free_data0_1 $p2_free_data01_1)))
 (let (($x1102 (= $p2_alloc_data0_1 $p2_alloc_data01_1)))
 (let (($x1099 (= $p1_free_data0_1 $p1_free_data01_1)))
 (let (($x1096 (= $p1_alloc_data0_1 $p1_alloc_data01_1)))
 (let (($x1093 (= $p10_alloc_data0_1 $p10_alloc_data01_1)))
 (let (($x1090 (= $p0_main0_1 $p0_main01_1)))
 (let (($x1087 (= $p0_free_data0_1 $p0_free_data01_1)))
 (let (($x1084 (= $p0_alloc_data0_1 $p0_alloc_data01_1)))
 (let (($x1081 (= $i7_free_data0_1 $i7_free_data01_1)))
 (let (($x1078 (= $i6_free_data0_1 $i6_free_data01_1)))
 (let (($x1076 (= $i5_free_data0_1 $i5_free_data01_1)))
 (let (($x1094 (and (and (and (and (and (and $x1076 $x1078) $x1081) $x1084) $x1087) $x1090) $x1093)))
 (let (($x1112 (and (and (and (and (and (and $x1094 $x1096) $x1099) $x1102) $x1105) $x1108) $x1111)))
 (let (($x1130 (and (and (and (and (and (and $x1112 $x1114) $x1117) $x1120) $x1123) $x1126) $x1129)))
 (let (($x1139 (and (and (and $x1130 $x1132) $x1135) $x1138)))
 (let (($x793 (= $i7_free_data01_1 0)))
 (let (($x797 (= $i7_free_data01_1 1)))
 (let (($x794 (>= $i5_free_data01_1 $i6_free_data01_1)))
 (let (($x799 (or (and $x794 $x797) (and (not $x794) $x793))))
 (let (($x801 (= invalidDeref10_1 invalidDeref9_1)))
 (let (($x802 (and invalidDeref9_1 $x801)))
 (let (($x803 (= $i6_free_data01_1 d9_1)))
 (let (($x807 (= H7_1 (uplus h19_1 (pt $p4_free_data01_1 (Pt_R_1 d9_1))))))
 (let (($x808 (and $x807 $x803)))
 (let (($x810 (= $p4_free_data01_1 nil)))
 (let (($x814 (= h20_1 (uplus H7_1 (pt $p4_free_data01_1 (Pt_R_1 d10_1))))))
 (let (($x818 (or (or (and (or $x814 $x810) invalidDeref10_1) (and $x808 $x801)) $x802)))
 (let (($x819 (= invalidDeref9_1 invalidDeref8_1)))
 (let (($x820 (and invalidDeref8_1 $x819)))
 (let (($x821 (= $i5_free_data01_1 d7_1)))
 (let (($x825 (= H7_1 (uplus h17_1 (pt $p2_free_data01_1 (Pt_R_1 d7_1))))))
 (let (($x826 (and $x825 $x821)))
 (let (($x828 (= $p2_free_data01_1 nil)))
 (let (($x832 (= h18_1 (uplus H7_1 (pt $p2_free_data01_1 (Pt_R_1 d8_1))))))
 (let (($x837 (= invalidDeref8_1 invalidDeref7_1)))
 (let (($x838 (and invalidDeref7_1 $x837)))
 (let (($x839 (= $p4_free_data01_1 l17_1)))
 (let (($x843 (= H7_1 (uplus h15_1 (pt $p3_free_data01_1 (Pt_R_0 l17_1))))))
 (let (($x844 (and $x843 $x839)))
 (let (($x846 (= $p3_free_data01_1 nil)))
 (let (($x850 (= h16_1 (uplus H7_1 (pt $p3_free_data01_1 (Pt_R_0 l18_1))))))
 (let (($x856 (= $p3_free_data01_1 (locadd $p0_free_data01_1 1))))
 (let (($x858 (= invalidDeref7_1 invalidDeref6_1)))
 (let (($x859 (and invalidDeref6_1 $x858)))
 (let (($x860 (= $p2_free_data01_1 l15_1)))
 (let (($x864 (= H7_1 (uplus h13_1 (pt $p1_free_data01_1 (Pt_R_0 l15_1))))))
 (let (($x865 (and $x864 $x860)))
 (let (($x867 (= $p1_free_data01_1 nil)))
 (let (($x871 (= h14_1 (uplus H7_1 (pt $p1_free_data01_1 (Pt_R_0 l16_1))))))
 (let (($x880 (= invalidDeref6_1 invalidDeref5_1)))
 (let (($x881 (and invalidDeref5_1 $x880)))
 (let (($x884 (= H7_1 (uplus h11_1 (pt $p10_alloc_data01_1 (Pt_R_1 8))))))
 (let (($x888 (= H6_1 (uplus h11_1 (pt $p10_alloc_data01_1 (Pt_R_1 d5_1))))))
 (let (($x889 (and $x888 $x884)))
 (let (($x891 (= $p10_alloc_data01_1 nil)))
 (let (($x895 (= h12 (uplus H6_1 (pt $p10_alloc_data01_1 (Pt_R_1 d6_1))))))
 (let (($x900 (= invalidDeref5_1 invalidDeref4_1)))
 (let (($x901 (and invalidDeref4_1 $x900)))
 (let (($x902 (= $p10_alloc_data01_1 l13_1)))
 (let (($x906 (= H6_1 (uplus h9_1 (pt $p9_alloc_data01_1 (Pt_R_0 l13_1))))))
 (let (($x907 (and $x906 $x902)))
 (let (($x909 (= $p9_alloc_data01_1 nil)))
 (let (($x913 (= h10_1 (uplus H6_1 (pt $p9_alloc_data01_1 (Pt_R_0 l14_1))))))
 (let ((?x918 (locadd $p0_alloc_data01_1 1)))
 (let (($x919 (= $p9_alloc_data01_1 ?x918)))
 (let (($x921 (= invalidDeref4_1 invalidDeref3_1)))
 (let (($x922 (and invalidDeref3_1 $x921)))
 (let (($x925 (= H6_1 (uplus h7_1 (pt $p8_alloc_data01_1 (Pt_R_1 4))))))
 (let (($x929 (= H5_1 (uplus h7_1 (pt $p8_alloc_data01_1 (Pt_R_1 d3_1))))))
 (let (($x930 (and $x929 $x925)))
 (let (($x932 (= $p8_alloc_data01_1 nil)))
 (let (($x936 (= h8 (uplus H5_1 (pt $p8_alloc_data01_1 (Pt_R_1 d4_1))))))
 (let (($x941 (= invalidDeref3_1 invalidDeref2_1)))
 (let (($x942 (and invalidDeref2_1 $x941)))
 (let (($x943 (= $p8_alloc_data01_1 l11_1)))
 (let (($x947 (= H5_1 (uplus h5_1 (pt $p7_alloc_data01_1 (Pt_R_0 l11_1))))))
 (let (($x948 (and $x947 $x943)))
 (let (($x950 (= $p7_alloc_data01_1 nil)))
 (let (($x954 (= h6_1 (uplus H5_1 (pt $p7_alloc_data01_1 (Pt_R_0 l12_1))))))
 (let (($x961 (= invalidDeref2_1 invalidDeref1_1)))
 (let (($x962 (and invalidDeref1_1 $x961)))
 (let (($x966 (= H5_1 (uplus h3_1 (pt $p6_alloc_data01_1 (Pt_R_0 $p4_alloc_data01_1))))))
 (let (($x970 (= H4_1 (uplus h3_1 (pt $p6_alloc_data01_1 (Pt_R_0 l9_1))))))
 (let (($x971 (and $x970 $x966)))
 (let (($x973 (= $p6_alloc_data01_1 nil)))
 (let (($x977 (= h4 (uplus H4_1 (pt $p6_alloc_data01_1 (Pt_R_0 l10_1))))))
 (let (($x988 (= AH3_1 (uplus AH2_1 (pt l8_1 (Pt_R_1 4))))))
 (let (($x989 (= $p4_alloc_data01_1 l8_1)))
 (let (($x993 (= H4_1 (uplus H3_1 (pt l8_1 (Pt_R_1 d2_1))))))
 (let (($x995 (and (and $x993 $x989) $x988)))
 (let (($x997 (= invalidDeref1_1 invalidDeref_0)))
 (let (($x998 (and invalidDeref_0 $x997)))
 (let (($x1002 (= H3_1 (uplus h1_1 (pt $p3_alloc_data01_1 (Pt_R_0 $p1_alloc_data01_1))))))
 (let (($x1006 (= H2_1 (uplus h1_1 (pt $p3_alloc_data01_1 (Pt_R_0 l6_1))))))
 (let (($x1007 (and $x1006 $x1002)))
 (let (($x1009 (= $p3_alloc_data01_1 nil)))
 (let (($x1013 (= h2 (uplus H2_1 (pt $p3_alloc_data01_1 (Pt_R_0 l7_1))))))
 (let (($x1024 (= AH2_1 (uplus AH1_1 (pt l5_1 (Pt_R_1 3))))))
 (let (($x1025 (= $p1_alloc_data01_1 l5_1)))
 (let (($x1029 (= H2_1 (uplus H1_1 (pt l5_1 (Pt_R_1 d1_1))))))
 (let (($x1031 (and (and $x1029 $x1025) $x1024)))
 (let (($x1037 (= AH1_1 (uplus AH_0 (pt l1_1 (Pt_R_1 2))))))
 (let (($x1038 (= $p0_main01_1 l1_1)))
 (let (($x1040 (= l3_1 (locadd l1_1 1))))
 (let ((?x1046 (uplus H_0 (uplus (pt l1_1 (Pt_R_0 l2_1)) (pt l3_1 (Pt_R_0 l4_1))))))
 (let (($x1047 (= H1_1 ?x1046)))
 (let (($x1050 (and (and (and $x1047 $x1040) $x1038) $x1037)))
 (let (($x1052 (and (or $x1050 invalidDeref_0) (or (= $p0_alloc_data01_1 $p0_main01_1) invalidDeref_0))))
 (let (($x1054 (and (and $x1052 (or $x1031 invalidDeref_0)) (or (= $p2_alloc_data01_1 $p1_alloc_data01_1) invalidDeref_0))))
 (let (($x1055 (and $x1054 (or (= $p3_alloc_data01_1 $p0_alloc_data01_1) invalidDeref_0))))
 (let (($x1056 (and $x1055 (or (or (and (or $x1013 $x1009) invalidDeref1_1) (and $x1007 $x997)) $x998))))
 (let (($x1058 (and (and $x1056 (or $x995 invalidDeref1_1)) (or (= $p5_alloc_data01_1 $p4_alloc_data01_1) invalidDeref1_1))))
 (let (($x1060 (and (and $x1058 (or (= $p6_alloc_data01_1 ?x918) invalidDeref1_1)) (or (or (and (or $x977 $x973) invalidDeref2_1) (and $x971 $x961)) $x962))))
 (let (($x1061 (and $x1060 (or (= $p7_alloc_data01_1 $p0_alloc_data01_1) invalidDeref2_1))))
 (let (($x1062 (and $x1061 (or (or (and (or $x954 $x950) invalidDeref3_1) (and $x948 $x941)) $x942))))
 (let (($x1063 (and $x1062 (or (or (and (or $x936 $x932) invalidDeref4_1) (and $x930 $x921)) $x922))))
 (let (($x1065 (and (and $x1063 (or $x919 invalidDeref4_1)) (or (or (and (or $x913 $x909) invalidDeref5_1) (and $x907 $x900)) $x901))))
 (let (($x1066 (and $x1065 (or (or (and (or $x895 $x891) invalidDeref6_1) (and $x889 $x880)) $x881))))
 (let (($x1068 (and (and $x1066 (or (= $p0_free_data01_1 $p0_main01_1) invalidDeref6_1)) (or (= $p1_free_data01_1 $p0_free_data01_1) invalidDeref6_1))))
 (let (($x1069 (and $x1068 (or (or (and (or $x871 $x867) invalidDeref7_1) (and $x865 $x858)) $x859))))
 (let (($x1071 (and (and $x1069 (or $x856 invalidDeref7_1)) (or (or (and (or $x850 $x846) invalidDeref8_1) (and $x844 $x837)) $x838))))
 (let (($x1072 (and $x1071 (or (or (and (or $x832 $x828) invalidDeref9_1) (and $x826 $x819)) $x820))))
 (let (($x1143 (and (and (and $x1072 $x818) (or $x799 invalidDeref10_1)) (and $x1139 $x1141))))
 (let (($x703 (= loc_0 1)))
 (let (($x707 (not invalidDeref_0)))
 (let (($x705 (and (and (= H_0 emp) (= AH_0 emp)) $x703)))
 (let (($x1170 (and (and $x705 $x707) (=> $x703 (and (and (and $x1143 $x1159) $x1164) $x1167)))))
 (and (and (and $x1170 $x1397) (=> $x1376 $x1552)) invalidDeref_3))))))))))))))))))))))))))))))))))))))))))))))))))))))))))))))))))))))))))))))))))))))))))))))))))))))))))))))))))))))))))))))))))))))))))))))))))))))))))))))))))))))))))))))))))))))))))))))))))))))))))))))))))))))))))))))))))))))))))))))))))))))))))))))))))))))))))))))))))))))))
(check-sat)
